p cnf 7230 16
-1978 2689 0
2696 2697 0
1986 -2697 0
-1986 -2696 0
2694 2695 0
1984 -2695 0
-1984 -2694 0
2692 2693 0
1982 -2693 0
-1982 -2692 0
2690 2691 0
1980 -2691 0
-1980 -2690 0
1988 -2699 0
-2688 -2689 0
2688 2689 0
